# Objective value = -4
err0 1
err1 1
err2 1
err3 1
num_0_V 2.2819999999998839e-03
num_0_C 8.2000000000116415e+00
num_1_V 3.4312499999999482e-03
num_1_C -5.6642499999997381e+02
num_0 0
num_1 0
num -99999
